10
20
311597
0
0
72 50 47 27 60 44 39 48 67 45 48 70 42 52 27 47 34 51 39 50
1
0
71 43 50 30 62 44 41 51 61 47 55 66 43 56 28 49 37 50 38 48
2
0
73 51 51 31 60 45 38 49 70 47 54 62 39 57 28 46 35 47 38 43
3
0
69 44 50 30 61 41 37 45 69 50 50 60 40 55 28 44 35 48 36 50
4
0
70 52 52 32 62 42 41 45 64 48 45 68 40 54 29 44 37 53 36 49
5
0
72 48 48 32 60 45 41 45 67 49 49 61 43 51 29 47 35 51 39 45
6
0
72 50 48 27 58 41 39 45 65 48 45 66 40 56 29 45 34 50 35 46
7
0
73 47 49 31 62 44 41 45 69 43 52 65 37 55 29 49 37 46 35 46
8
0
71 50 48 30 61 44 36 41 67 47 49 67 41 53 28 45 37 51 36 45
9
0
76 49 48 31 56 44 38 47 63 47 48 62 43 56 28 44 36 49 36 45
